200 50
32 36
137 137
86 170
94 110
41 63
140 154
99 156
8 15
140 165
9 16
105 156
18 22
36 61
125 206
138 269
98 92
62 59
74 87
141 261
123 169
23 24
6 12
133 263
52 90
94 89
58 83
148 263
54 98
102 165
119 166
125 234
13 25
109 211
63 115
134 211
100 188
78 155
112 120
25 34
149 230
36 53
118 145
42 61
53 84
128 233
5 6
106 159
72 134
35 61
43 51
